(set-logic QF_NRA)
(declare-fun xuscore5dollarsk!1 () Real)
(declare-fun a () Real)
(declare-fun vyuscore5dollarsk!3 () Real)
(declare-fun vxuscore5dollarsk!2 () Real)
(declare-fun buscore2dollarsk!5 () Real)
(declare-fun yuscore5dollarsk!0 () Real)
(declare-fun stateuscore2dollarsk!4 () Real)
(declare-fun vx () Real)
(declare-fun vy () Real)
(declare-fun x () Real)
(declare-fun y () Real)
(declare-fun b () Real)
(declare-fun yuscore2dollarsk!6 () Real)
(declare-fun xuscore2dollarsk!7 () Real)
(assert (= (+ (* 2 a) vyuscore5dollarsk!3 (* (- 1) (* xuscore5dollarsk!1 a))) (- 2)))
(assert (= (+ (* vxuscore5dollarsk!2 vxuscore5dollarsk!2) (* vyuscore5dollarsk!3 vyuscore5dollarsk!3)) 8))
(assert (= (+ (* 2 a) vxuscore5dollarsk!2 (* (- 4) buscore2dollarsk!5) (* a yuscore5dollarsk!0) (* 4 (* a buscore2dollarsk!5))) 2))
(assert (= stateuscore2dollarsk!4 2))
(assert (= vyuscore5dollarsk!3 (- 2)))
(assert (= vxuscore5dollarsk!2 2))
(assert (= (+ (* (- 4) buscore2dollarsk!5) (* xuscore5dollarsk!1 a) (* a yuscore5dollarsk!0) (* 4 (* a buscore2dollarsk!5))) 0))
(assert (= stateuscore2dollarsk!4 1))
(assert (= stateuscore2dollarsk!4 0))
(assert (= vx 2))
(assert (= vy (- 2)))
(assert (= x 0))
(assert (= y 0))
(assert (= b 0))
(assert (not (= (+ (* (- 4) buscore2dollarsk!5) (* 4 (* a buscore2dollarsk!5)) (* a yuscore2dollarsk!6) (* a xuscore2dollarsk!7)) 0)))
(assert (not (= vxuscore5dollarsk!2 (- 2))))
(check-sat)
